unsat
(define-fun inv-f ((lo Int) (mid Int) (hi Int)) Bool (and (or (>= mid 1) (= lo hi)) (= lo (+ (* (- 2) mid) hi))))
0.36user 0.00system 0:00.36elapsed 100%CPU (0avgtext+0avgdata 32304maxresident)k
0inputs+8outputs (0major+2809minor)pagefaults 0swaps
